n_machines = 5;
n_resources = 7;
n_jobs = 35;
horizon = 19044;
LB = 3808;
n_jobs_per_resource = [5, 5, 5, 5, 5, 5, 5];
duration = [131, 845, 598, 122, 69, 89, 839, 778, 791, 927, 688, 589, 318, 314, 294, 561, 867, 834, 182, 914, 982, 598, 730, 285, 540, 648, 103, 754, 776, 355, 98, 348, 976, 411, 690]